80
Time limit set to 60 seconds
Running CP solver
/home/omastto1/General-Optimization-Solver/src/solvers/mmrcpsp.py:42(stream:108:6): Warning: Cumulative expression 'pulse': height is zero, expression is zero everywhere.
                                                                                               VarCumulAtom_149 = pulse(task_0_mode_0, 0)
/home/omastto1/General-Optimization-Solver/src/solvers/mmrcpsp.py:42(stream:108:1253): Warning: Cumulative expression 'pulse': height is zero, expression is zero everywhere.
                                                                                                  VarCumulAtom_198 = pulse(task_17_mode_0, 0)
/home/omastto1/General-Optimization-Solver/src/solvers/mmrcpsp.py:42(stream:109:6): Warning: Cumulative expression 'pulse': height is zero, expression is zero everywhere.
                                                                                               VarCumulAtom_202 = pulse(task_0_mode_0, 0)
/home/omastto1/General-Optimization-Solver/src/solvers/mmrcpsp.py:42(stream:109:1252): Warning: Cumulative expression 'pulse': height is zero, expression is zero everywhere.
                                                                                                  VarCumulAtom_251 = pulse(task_17_mode_0, 0)
 ! --------------------------------------------------- CP Optimizer 20.1.0.0 --
 ! Minimization problem - 69 variables, 51 constraints
 ! TimeLimit            = 60
 ! Workers              = 14
 ! LogVerbosity         = Terse
 ! Initial process time : 0.00s (0.00s extraction + 0.00s propagation)
 !  . Log search space  : 159.0 (before), 159.0 (after)
 !  . Memory usage      : 754.6 kB (before), 754.6 kB (after)
 ! Using parallel search with 14 workers.
 ! ----------------------------------------------------------------------------
 !          Best Branches  Non-fixed    W       Branch decision
                        0         69                 -
 + New bound is 28
 ! Using iterative diving.
 ! Using temporal relaxation.
 *            46       44  0.41s        1      (gap is 39.13%)
 *            42      103  0.41s        1      (gap is 33.33%)
 *            41      143  0.41s        1      (gap is 31.71%)
 *            38      183  0.41s        1      (gap is 26.32%)
 *            36      299  0.41s        1      (gap is 22.22%)
 *            35      339  0.41s        1      (gap is 20.00%)
 *            34      373  0.41s        1      (gap is 17.65%)
 *            33      386  0.41s        1      (gap is 15.15%)
 *            32      402  0.41s        1      (gap is 12.50%)
 *            31      416  0.41s        1      (gap is 9.68%)
 *            30      465  0.41s        1      (gap is 6.67%)
 ! Using failure-directed search.
 *            29      564  0.41s        1      (gap is 3.45%)
 *            28      615  0.41s        1      (gap is 0.00%)
 ! ----------------------------------------------------------------------------
 ! Search completed, 13 solutions found.
 ! Best objective         : 28 (optimal - effective tol. is 0)
 ! Best bound             : 28
 ! ----------------------------------------------------------------------------
 ! Number of branches     : 60811
 ! Number of fails        : 2795
 ! Total memory usage     : 9.7 MB (9.6 MB CP Optimizer + 0.1 MB Concert)
 ! Time spent in solve    : 0.43s (0.43s engine + 0.00s extraction)
 ! Search speed (br. / s) : 141420.9
 ! ----------------------------------------------------------------------------
task_0: (start=0, end=0, size=0, length=0)
Task 0 is scheduled in mode 0 from 0 to 0
task_1: (start=0, end=1, size=1, length=1)
Task 1 is scheduled in mode 0 from 0 to 1
task_2: (start=0, end=10, size=10, length=10)
Task 2 is scheduled in mode 2 from 0 to 10
task_3: (start=0, end=8, size=8, length=8)
Task 3 is scheduled in mode 2 from 0 to 8
task_4: (start=1, end=5, size=4, length=4)
Task 4 is scheduled in mode 0 from 1 to 5
task_5: (start=12, end=16, size=4, length=4)
Task 5 is scheduled in mode 2 from 12 to 16
task_6: (start=10, end=18, size=8, length=8)
Task 6 is scheduled in mode 2 from 10 to 18
task_7: (start=5, end=8, size=3, length=3)
Task 7 is scheduled in mode 1 from 5 to 8
task_8: (start=19, end=23, size=4, length=4)
Task 8 is scheduled in mode 1 from 19 to 23
task_9: (start=8, end=12, size=4, length=4)
Task 9 is scheduled in mode 1 from 8 to 12
task_10: (start=8, end=14, size=6, length=6)
Task 10 is scheduled in mode 0 from 8 to 14
task_11: (start=14, end=19, size=5, length=5)
Task 11 is scheduled in mode 2 from 14 to 19
task_12: (start=16, end=19, size=3, length=3)
Task 12 is scheduled in mode 0 from 16 to 19
task_13: (start=19, end=23, size=4, length=4)
Task 13 is scheduled in mode 0 from 19 to 23
task_14: (start=23, end=28, size=5, length=5)
Task 14 is scheduled in mode 2 from 23 to 28
task_15: (start=18, end=26, size=8, length=8)
Task 15 is scheduled in mode 1 from 18 to 26
task_16: (start=23, end=28, size=5, length=5)
Task 16 is scheduled in mode 0 from 23 to 28
task_17: (start=28, end=28, size=0, length=0)
Task 17 is scheduled in mode 0 from 28 to 28
Optimal solution found
Objective value: 28
Solution is optimal.
